100
898 515
802 402
577 12
192 451
863 939
976 222
657 105
16 365
314 145
301 276
498 811
473 338
118 946
319 903
621 830
298 700
816 177
528 935
112 208
724 840
955 881
760 726
318 155
772 663
772 435
98 679
490 852
960 548
343 931
560 710
99 144
874 771
516 74
908 16
666 183
442 932
77 168
814 978
621 642
70 408
754 545
724 637
600 64
423 805
998 826
359 390
726 832
822 308
35 710
249 67
826 787
650 543
611 573
509 634
156 894
483 175
263 7
861 452
721 197
522 858
701 901
110 780
865 261
298 43
400 713
999 421
900 387
472 750
387 833
87 524
217 515
924 692
723 376
537 844
403 560
478 71
909 327
234 34
748 651
880 310
895 391
556 689
306 393
713 342
543 644
594 20
673 186
233 449
872 870
726 685
354 42
367 901
580 180
82 559
160 262
447 13
310 810
698 23
689 721
286 901
